Route #1: 11 12 32 52 72 92 112 132 152 172 192 193 173 153 133 113 93 73 53 54 74 94 114 134 154 174 194 195 175 155 135 115 95 75 55 35 34 33 13 14 15
Route #2: 20 19 18 38 39 59 79 99 119 139 159 179 199 198 178 158 138 118 98 78 58 57 77 97 117 137 157 177 197 196 176 156 136 116 96 76 56 36 37 17 16
Route #3: 1 21 40 60 80 100 120 140 160 180 200 181 161 141 121 101 81 61 41 42 62 82 102 122 142 162 182 183 163 143 123 103 83 63 43 23 22 2 3
Route #4: 8 7 27 47 67 87 107 127 147 167 187 186 166 146 126 106 86 66 46 45 65 85 105 125 145 165 185 184 164 144 124 104 84 64 44 24 25 26 6 5 4
Route #5: 9 29 28 48 68 88 108 128 148 168 188 189 169 149 129 109 89 69 49 50 70 90 110 130 150 170 190 191 171 151 131 111 91 71 51 31 30 10
Cost 6460
